p edge 1104 1084
e 1 2
e 1 3
e 1 4
e 1 5
e 1 6
e 1 7
e 1 8
e 1 9
e 1 10
e 1 11
e 1 12
e 1 13
e 1 14
e 1 15
e 1 16
e 1 17
e 1 18
e 1 19
e 1 20
e 1 21
e 1 22
e 1 23
e 1 24
e 1 25
e 1 26
e 1 27
e 1 28
e 1 29
e 1 30
e 1 31
e 1 32
e 1 33
e 1 34
e 1 35
e 1 36
e 1 37
e 1 38
e 1 39
e 1 40
e 1 41
e 1 42
e 1 43
e 1 44
e 1 45
e 1 46
e 1 47
e 1 48
e 1 49
e 50 51
e 50 52
e 50 53
e 50 54
e 50 55
e 50 56
e 50 57
e 50 58
e 50 59
e 50 60
e 50 61
e 50 62
e 50 63
e 50 64
e 50 65
e 50 66
e 50 67
e 50 68
e 50 69
e 50 70
e 50 71
e 72 73
e 72 74
e 72 75
e 72 76
e 72 77
e 72 78
e 72 79
e 72 80
e 72 81
e 72 82
e 72 83
e 72 84
e 72 85
e 72 86
e 72 87
e 72 88
e 72 89
e 72 90
e 72 91
e 72 92
e 72 93
e 72 94
e 72 95
e 72 96
e 72 97
e 72 98
e 72 99
e 72 100
e 72 101
e 72 102
e 72 103
e 72 104
e 72 105
e 72 106
e 72 107
e 72 108
e 72 109
e 72 110
e 72 111
e 72 112
e 72 113
e 72 114
e 72 115
e 116 117
e 116 118
e 116 119
e 116 120
e 116 121
e 116 122
e 116 123
e 116 124
e 116 125
e 116 126
e 116 127
e 116 128
e 116 129
e 116 130
e 116 131
e 116 132
e 116 133
e 116 134
e 116 135
e 116 136
e 116 137
e 116 138
e 116 139
e 116 140
e 116 141
e 116 142
e 116 143
e 116 144
e 116 145
e 116 146
e 116 147
e 116 148
e 116 149
e 116 150
e 116 151
e 116 152
e 116 153
e 116 154
e 116 155
e 116 156
e 116 157
e 116 158
e 116 159
e 116 160
e 116 161
e 116 162
e 116 163
e 116 164
e 116 165
e 116 166
e 116 167
e 116 168
e 116 169
e 116 170
e 116 171
e 116 172
e 116 173
e 116 174
e 116 175
e 116 176
e 116 177
e 116 178
e 116 179
e 116 180
e 116 181
e 116 182
e 116 183
e 116 184
e 116 185
e 116 186
e 116 187
e 116 188
e 116 189
e 116 190
e 116 191
e 116 192
e 193 194
e 193 195
e 193 196
e 193 197
e 193 198
e 193 199
e 193 200
e 193 201
e 193 202
e 193 203
e 193 204
e 193 205
e 193 206
e 193 207
e 193 208
e 193 209
e 193 210
e 193 211
e 193 212
e 193 213
e 193 214
e 193 215
e 193 216
e 193 217
e 193 218
e 193 219
e 193 220
e 193 221
e 193 222
e 193 223
e 193 224
e 193 225
e 193 226
e 193 227
e 193 228
e 193 229
e 193 230
e 193 231
e 193 232
e 193 233
e 193 234
e 193 235
e 193 236
e 193 237
e 193 238
e 193 239
e 193 240
e 193 241
e 193 242
e 193 243
e 193 244
e 193 245
e 193 246
e 193 247
e 193 248
e 193 249
e 193 250
e 193 251
e 193 252
e 193 253
e 193 254
e 193 255
e 193 256
e 193 257
e 193 258
e 193 259
e 193 260
e 193 261
e 193 262
e 193 263
e 193 264
e 193 265
e 193 266
e 193 267
e 193 268
e 193 269
e 193 270
e 193 271
e 193 272
e 193 273
e 193 274
e 193 275
e 193 276
e 277 278
e 277 279
e 277 280
e 277 281
e 277 282
e 277 283
e 277 284
e 277 285
e 277 286
e 277 287
e 277 288
e 277 289
e 277 290
e 277 291
e 277 292
e 277 293
e 277 294
e 277 295
e 277 296
e 277 297
e 277 298
e 277 299
e 277 300
e 277 301
e 277 302
e 277 303
e 277 304
e 277 305
e 277 306
e 277 307
e 277 308
e 277 309
e 277 310
e 277 311
e 277 312
e 277 313
e 277 314
e 277 315
e 277 316
e 277 317
e 277 318
e 277 319
e 277 320
e 277 321
e 277 322
e 277 323
e 277 324
e 277 325
e 277 326
e 277 327
e 277 328
e 277 329
e 277 330
e 277 331
e 277 332
e 277 333
e 277 334
e 277 335
e 277 336
e 277 337
e 277 338
e 277 339
e 277 340
e 277 341
e 277 342
e 277 343
e 277 344
e 277 345
e 277 346
e 277 347
e 277 348
e 277 349
e 277 350
e 277 351
e 277 352
e 277 353
e 277 354
e 277 355
e 277 356
e 277 357
e 277 358
e 277 359
e 277 360
e 277 361
e 277 362
e 277 363
e 277 364
e 365 366
e 365 367
e 365 368
e 365 369
e 365 370
e 365 371
e 365 372
e 365 373
e 365 374
e 365 375
e 365 376
e 365 377
e 365 378
e 365 379
e 365 380
e 365 381
e 365 382
e 365 383
e 365 384
e 365 385
e 365 386
e 365 387
e 365 388
e 365 389
e 365 390
e 365 391
e 365 392
e 365 393
e 365 394
e 365 395
e 365 396
e 365 397
e 365 398
e 365 399
e 365 400
e 365 401
e 365 402
e 365 403
e 365 404
e 365 405
e 365 406
e 365 407
e 365 408
e 365 409
e 365 410
e 365 411
e 365 412
e 365 413
e 365 414
e 365 415
e 365 416
e 365 417
e 365 418
e 365 419
e 365 420
e 365 421
e 365 422
e 365 423
e 365 424
e 365 425
e 365 426
e 365 427
e 365 428
e 365 429
e 365 430
e 365 431
e 365 432
e 365 433
e 365 434
e 365 435
e 365 436
e 365 437
e 365 438
e 365 439
e 365 440
e 365 441
e 365 442
e 365 443
e 365 444
e 365 445
e 365 446
e 365 447
e 365 448
e 365 449
e 365 450
e 365 451
e 365 452
e 453 454
e 453 455
e 453 456
e 453 457
e 453 458
e 453 459
e 453 460
e 453 461
e 453 462
e 453 463
e 453 464
e 453 465
e 453 466
e 453 467
e 453 468
e 453 469
e 453 470
e 453 471
e 453 472
e 453 473
e 453 474
e 453 475
e 453 476
e 453 477
e 453 478
e 453 479
e 453 480
e 453 481
e 453 482
e 453 483
e 453 484
e 453 485
e 453 486
e 453 487
e 453 488
e 453 489
e 453 490
e 453 491
e 453 492
e 453 493
e 453 494
e 453 495
e 453 496
e 453 497
e 453 498
e 453 499
e 453 500
e 453 501
e 453 502
e 453 503
e 453 504
e 505 506
e 505 507
e 505 508
e 505 509
e 505 510
e 505 511
e 505 512
e 505 513
e 505 514
e 505 515
e 505 516
e 505 517
e 505 518
e 505 519
e 505 520
e 505 521
e 505 522
e 505 523
e 505 524
e 505 525
e 505 526
e 505 527
e 505 528
e 505 529
e 505 530
e 505 531
e 505 532
e 505 533
e 505 534
e 505 535
e 505 536
e 505 537
e 505 538
e 505 539
e 505 540
e 505 541
e 505 542
e 505 543
e 505 544
e 505 545
e 505 546
e 505 547
e 505 548
e 505 549
e 505 550
e 551 552
e 551 553
e 551 554
e 551 555
e 551 556
e 551 557
e 551 558
e 551 559
e 551 560
e 551 561
e 551 562
e 551 563
e 564 565
e 564 566
e 564 567
e 564 568
e 564 569
e 564 570
e 564 571
e 564 572
e 564 573
e 564 574
e 564 575
e 564 576
e 564 577
e 564 578
e 564 579
e 564 580
e 564 581
e 582 583
e 582 584
e 582 585
e 582 586
e 582 587
e 582 588
e 582 589
e 582 590
e 582 591
e 582 592
e 582 593
e 582 594
e 582 595
e 582 596
e 582 597
e 582 598
e 582 599
e 582 600
e 582 601
e 582 602
e 582 603
e 582 604
e 582 605
e 582 606
e 582 607
e 582 608
e 582 609
e 582 610
e 582 611
e 582 612
e 582 613
e 582 614
e 582 615
e 582 616
e 582 617
e 582 618
e 582 619
e 582 620
e 582 621
e 582 622
e 582 623
e 582 624
e 582 625
e 582 626
e 582 627
e 582 628
e 582 629
e 582 630
e 582 631
e 582 632
e 582 633
e 582 634
e 582 635
e 582 636
e 582 637
e 582 638
e 582 639
e 582 640
e 582 641
e 582 642
e 582 643
e 582 644
e 582 645
e 582 646
e 647 648
e 647 649
e 647 650
e 647 651
e 647 652
e 647 653
e 647 654
e 647 655
e 647 656
e 647 657
e 647 658
e 647 659
e 647 660
e 647 661
e 647 662
e 647 663
e 647 664
e 647 665
e 647 666
e 647 667
e 647 668
e 647 669
e 647 670
e 647 671
e 647 672
e 647 673
e 647 674
e 647 675
e 647 676
e 647 677
e 647 678
e 647 679
e 647 680
e 647 681
e 647 682
e 647 683
e 647 684
e 647 685
e 647 686
e 647 687
e 647 688
e 647 689
e 647 690
e 647 691
e 647 692
e 647 693
e 647 694
e 647 695
e 647 696
e 647 697
e 647 698
e 647 699
e 647 700
e 647 701
e 647 702
e 647 703
e 647 704
e 647 705
e 647 706
e 647 707
e 647 708
e 647 709
e 647 710
e 711 712
e 711 713
e 711 714
e 711 715
e 711 716
e 711 717
e 711 718
e 711 719
e 711 720
e 711 721
e 711 722
e 711 723
e 711 724
e 711 725
e 711 726
e 711 727
e 711 728
e 711 729
e 711 730
e 711 731
e 711 732
e 711 733
e 711 734
e 711 735
e 711 736
e 711 737
e 711 738
e 711 739
e 711 740
e 711 741
e 711 742
e 711 743
e 711 744
e 711 745
e 711 746
e 711 747
e 711 748
e 749 750
e 749 751
e 749 752
e 749 753
e 749 754
e 749 755
e 749 756
e 749 757
e 749 758
e 749 759
e 749 760
e 749 761
e 749 762
e 749 763
e 749 764
e 749 765
e 749 766
e 749 767
e 749 768
e 749 769
e 749 770
e 749 771
e 749 772
e 749 773
e 749 774
e 749 775
e 749 776
e 749 777
e 749 778
e 749 779
e 749 780
e 749 781
e 749 782
e 749 783
e 749 784
e 749 785
e 749 786
e 749 787
e 749 788
e 749 789
e 749 790
e 749 791
e 749 792
e 749 793
e 749 794
e 749 795
e 749 796
e 749 797
e 749 798
e 749 799
e 749 800
e 749 801
e 749 802
e 749 803
e 749 804
e 749 805
e 749 806
e 749 807
e 749 808
e 749 809
e 749 810
e 749 811
e 749 812
e 749 813
e 749 814
e 749 815
e 749 816
e 749 817
e 749 818
e 749 819
e 749 820
e 821 822
e 821 823
e 821 824
e 821 825
e 821 826
e 821 827
e 821 828
e 821 829
e 821 830
e 821 831
e 821 832
e 821 833
e 821 834
e 821 835
e 821 836
e 821 837
e 821 838
e 821 839
e 821 840
e 821 841
e 821 842
e 821 843
e 821 844
e 821 845
e 821 846
e 821 847
e 821 848
e 821 849
e 821 850
e 821 851
e 821 852
e 821 853
e 821 854
e 821 855
e 821 856
e 821 857
e 821 858
e 821 859
e 821 860
e 821 861
e 821 862
e 821 863
e 821 864
e 821 865
e 821 866
e 821 867
e 821 868
e 821 869
e 821 870
e 821 871
e 821 872
e 821 873
e 821 874
e 821 875
e 821 876
e 821 877
e 821 878
e 821 879
e 821 880
e 821 881
e 821 882
e 821 883
e 821 884
e 821 885
e 821 886
e 821 887
e 821 888
e 821 889
e 821 890
e 821 891
e 821 892
e 821 893
e 821 894
e 821 895
e 821 896
e 821 897
e 821 898
e 821 899
e 821 900
e 821 901
e 821 902
e 821 903
e 821 904
e 821 905
e 821 906
e 821 907
e 821 908
e 821 909
e 821 910
e 821 911
e 821 912
e 821 913
e 821 914
e 915 916
e 915 917
e 915 918
e 915 919
e 915 920
e 915 921
e 915 922
e 915 923
e 915 924
e 915 925
e 915 926
e 915 927
e 915 928
e 915 929
e 915 930
e 915 931
e 915 932
e 915 933
e 915 934
e 915 935
e 915 936
e 915 937
e 915 938
e 915 939
e 915 940
e 915 941
e 915 942
e 915 943
e 915 944
e 915 945
e 915 946
e 915 947
e 915 948
e 915 949
e 915 950
e 915 951
e 915 952
e 915 953
e 915 954
e 915 955
e 915 956
e 915 957
e 915 958
e 915 959
e 915 960
e 915 961
e 915 962
e 915 963
e 915 964
e 915 965
e 915 966
e 915 967
e 915 968
e 915 969
e 915 970
e 915 971
e 915 972
e 915 973
e 915 974
e 915 975
e 915 976
e 915 977
e 915 978
e 915 979
e 915 980
e 915 981
e 915 982
e 915 983
e 915 984
e 915 985
e 915 986
e 915 987
e 915 988
e 915 989
e 915 990
e 915 991
e 915 992
e 915 993
e 915 994
e 915 995
e 915 996
e 915 997
e 998 999
e 998 1000
e 998 1001
e 998 1002
e 998 1003
e 998 1004
e 998 1005
e 998 1006
e 998 1007
e 998 1008
e 998 1009
e 998 1010
e 998 1011
e 998 1012
e 998 1013
e 998 1014
e 998 1015
e 998 1016
e 998 1017
e 998 1018
e 998 1019
e 998 1020
e 998 1021
e 998 1022
e 998 1023
e 998 1024
e 998 1025
e 998 1026
e 998 1027
e 998 1028
e 998 1029
e 998 1030
e 998 1031
e 998 1032
e 998 1033
e 1034 1035
e 1034 1036
e 1034 1037
e 1034 1038
e 1034 1039
e 1034 1040
e 1034 1041
e 1034 1042
e 1034 1043
e 1034 1044
e 1034 1045
e 1034 1046
e 1034 1047
e 1034 1048
e 1034 1049
e 1034 1050
e 1034 1051
e 1034 1052
e 1034 1053
e 1034 1054
e 1034 1055
e 1034 1056
e 1034 1057
e 1034 1058
e 1034 1059
e 1034 1060
e 1034 1061
e 1034 1062
e 1034 1063
e 1034 1064
e 1034 1065
e 1034 1066
e 1034 1067
e 1034 1068
e 1034 1069
e 1034 1070
e 1034 1071
e 1034 1072
e 1034 1073
e 1034 1074
e 1034 1075
e 1034 1076
e 1034 1077
e 1078 1079
e 1078 1080
e 1078 1081
e 1078 1082
e 1078 1083
e 1078 1084
e 1078 1085
e 1078 1086
e 1078 1087
e 1078 1088
e 1078 1089
e 1078 1090
e 1078 1091
e 1078 1092
e 1078 1093
e 1078 1094
e 1078 1095
e 1078 1096
e 1078 1097
e 1078 1098
e 1078 1099
e 1078 1100
e 1078 1101
e 1078 1102
e 1078 1103
e 1078 1104
